143198
[0, 1, 2, 3, 4, 5, 6, 7, 8, 9, 10, 11, 12, 13, 14, 15, 16, 17, 18, 19, 20, 21, 22, 23, 24, 145, 146, 147, 148, 149, 47, 48, 49, 170, 171, 172, 173, 174, 74, 195, 196, 197, 198, 199, 97, 98, 99, 220, 221, 222, 223, 224, 124, 123, 122, 121, 120, 119, 118, 117, 116, 115, 114, 113, 210, 211, 212, 213, 214, 112, 111, 110, 109, 108, 107, 106, 105, 104, 103, 102, 101, 100, 204, 203, 202, 201, 200, 75, 76, 77, 78, 79, 209, 208, 207, 206, 205, 80, 182, 183, 184, 81, 82, 83, 84, 85, 86, 87, 88, 89, 90, 91, 92, 215, 216, 217, 218, 219, 96, 95, 94, 93, 194, 193, 192, 191, 64, 65, 66, 67, 190, 73, 72, 71, 70, 69, 68, 169, 168, 167, 166, 165, 44, 45, 46, 140, 141, 142, 143, 144, 43, 42, 41, 40, 39, 38, 162, 163, 164, 63, 189, 188, 187, 186, 185, 62, 61, 60, 181, 180, 56, 55, 54, 53, 52, 51, 179, 178, 177, 176, 175, 50, 154, 153, 152, 151, 150, 25, 26, 27, 28, 29, 30, 155, 156, 157, 158, 159, 57, 58, 59, 161, 160, 37, 139, 138, 137, 136, 135, 36, 35, 34, 33, 32, 31, 134, 133, 132, 131, 130, 129, 128, 127, 126, 125]
